
Gurobi 10.0.1 (linux64) logging started Sun Nov 26 15:41:21 2023

Set parameter LogFile to value "ArtificialInstance/ExperimentV2/S3T4K1/AdRo/gurobiDoRo50.txt"
Gurobi Optimizer version 10.0.1 build v10.0.1rc0 (linux64)

CPU model: AMD EPYC 7H12 64-Core Processor, instruction set [SSE2|AVX|AVX2]
Thread count: 128 physical cores, 128 logical processors, using up to 32 threads

Academic license 656792 - for non-commercial use only - registered to b.___@student.vu.nl
Optimize a model with 3791 rows, 3525 columns and 13945 nonzeros
Model fingerprint: 0x033e9a6a
Variable types: 1 continuous, 3524 integer (3524 binary)
Coefficient statistics:
  Matrix range     [1e+00, 4e+01]
  Objective range  [1e+00, 2e+01]
  Bounds range     [1e+00, 1e+00]
  RHS range        [1e+00, 1e+00]
Presolve removed 1447 rows and 1153 columns
Presolve time: 0.04s
Presolved: 2344 rows, 2372 columns, 9255 nonzeros
Variable types: 1 continuous, 2371 integer (2371 binary)
Found heuristic solution: objective 108.4528868

Root relaxation: objective 8.044277e+01, 829 iterations, 0.02 seconds (0.01 work units)

    Nodes    |    Current Node    |     Objective Bounds      |     Work
 Expl Unexpl |  Obj  Depth IntInf | Incumbent    BestBd   Gap | It/Node Time

     0     0   80.44277    0   49  108.45289   80.44277  25.8%     -    0s
H    0     0                      85.4530000   80.44277  5.86%     -    0s
H    0     0                      80.4427661   80.44277  0.00%     -    0s

Cutting planes:
  Gomory: 4
  MIR: 2

Explored 1 nodes (1588 simplex iterations) in 0.14 seconds (0.08 work units)
Thread count was 32 (of 128 available processors)

Solution count 3: 80.4428 85.453 108.453 

Optimal solution found (tolerance 1.00e-04)
Best objective 8.044276610927e+01, best bound 8.044276610927e+01, gap 0.0000%
